outputs/case_386.model.txt
financial_or_business_improvement_plan_completed = False
unable_to_fulfill_contract = False
capital_adequacy_ratio = 40
merger_completed = False
profit_loss_accelerated_deterioration = False
financial_or_business_deterioration_flag = False
net_worth_ratio = 3/2
net_worth = -10
improvement_plan_approved = False
capital_increase_completed = False
days_since_deadline = 91
improvement_plan_effective = False
risk_to_insured_interest = False
improvement_plan_submitted = False
unable_to_pay_debt = False
supervisory_measures_applicable = False
financial_or_business_deterioration = False
improvement_plan_submitted_and_approved = False
capital_level_4_noncompliance = True
penalty = False
improvement_plan_accelerated_deterioration = False
capital_level = 4
capital_level_4_penalty_period = 0